% Generated FlatZinc statistics:
%%%mzn-stat: paths=220214
%%%mzn-stat: flatBoolVars=3012
%%%mzn-stat: flatIntVars=8783
%%%mzn-stat: flatSetVars=5625
%%%mzn-stat: flatIntConstraints=9758
%%%mzn-stat: flatSetConstraints=7587
%%%mzn-stat: evaluatedReifiedConstraints=3012
%%%mzn-stat: method="minimize"
%%%mzn-stat: flatTime=27.9364
%%%mzn-stat-end
w = 7584; 
link_objective = 79; 
cpu_objective = 96; 
services2locs = [7, 4, 14, 12, 2, 9, 11, 10, 8, 13, 6, 4, 6, 9, 4, 4, 5, 3, 8, 6, 10, 1, 2, 3, 14, 7, 12, 10, 5, 9, 14, 6, 9, 14, 10, 14, 11, 14, 2, 3, 1, 2, 11, 8, 14, 4, 10, 14, 8, 3, 8, 10, 4, 4, 11, 6, 5, 8, 7, 5, 7, 11, 5, 3, 5, 8, 1, 2, 4, 13, 8, 1, 13, 5, 7];
locations2names = ["ECU1", "ECU2", "ECU3", "DM1", "DM2", "DM3", "CAM1", "CAM2", "CAM3", "CAM4", "Display1", "Display2", "Display3", "Display4", "Switch1", "Switch2", "Switch3", "Switch4", "Switch5"];
services2names = ["S3_Video_1", "S1_C&C_1_1", "S4_BE_1", "S1_C&C_1_2", "S1_C&C_1_3", "S3_Video_2", "S1_C&C_2_1", "S4_BE_2", "S4_BE_3", "S1_C&C_1_4", "S3_Video_3", "S4_BE_4", "S3_Video_4", "S1_C&C_2_2", "S1_C&C_1_5", "S1_C&C_1_6", "S2_Audio_1", "S1_C&C_1_7", "S2_Audio_2", "S3_Video_5", "S2_Audio_3", "S2_Audio_4", "S4_BE_5", "S3_Video_6", "S3_Video_7", "S1_C&C_1_8", "S1_C&C_1_9", "S1_C&C_1_10", "S1_C&C_1_11", "S1_C&C_1_12", "S1_C&C_2_3", "S1_C&C_1_13", "S4_BE_6", "S2_Audio_5", "S4_BE_7", "S2_Audio_6", "S4_BE_8", "S3_Video_8", "S3_Video_9", "S1_C&C_1_14", "S3_Video_10", "S4_BE_9", "S4_BE_10", "S4_BE_11", "S4_BE_12", "S3_Video_11", "S1_C&C_1_15", "S3_Video_12", "S3_Video_13", "S2_Audio_7", "S2_Audio_8", "S1_C&C_2_4", "S4_BE_13", "S4_BE_14", "S3_Video_14", "S3_Video_15", "S3_Video_16", "S2_Audio_9", "S1_C&C_1_16", "S2_Audio_10", "S3_Video_17", "S2_Audio_11", "S1_C&C_1_17", "S1_C&C_2_5", "S2_Audio_12", "S2_Audio_13", "S4_BE_15", "S4_BE_16", "S3_Video_18", "S2_Audio_14", "S4_BE_17", "S1_C&C_1_18", "S1_C&C_2_6", "S1_C&C_1_19", "S2_Audio_15"];
cpu_usage = [48, 60, 60, 96, 84, 60, 60, 96, 48, 72, 60, 24, 36, 96, 0, 0, 0, 0, 0]; 
slack = [82414880, 63747536, 46546176, 87071104, 85842304, 20122976, 98771200, 57020000, 87402048, 29101984, 31751232, 35825680, 93728576, 73648400, 92268576, 951963104, 88481808, 53441456]; 
charge = [17, 36, 53, 12, 14, 79, 1, 42, 12, 70, 68, 64, 6, 26, 7, 4, 11, 46]; 
----------
%%%mzn-stat: initTime=0.60154
%%%mzn-stat: solveTime=32.1936
%%%mzn-stat: solutions=19
%%%mzn-stat: variables=17425
%%%mzn-stat: propagators=17345
%%%mzn-stat: propagations=14591833
%%%mzn-stat: nodes=9970
%%%mzn-stat: failures=4901
%%%mzn-stat: restarts=0
%%%mzn-stat: peakDepth=87
%%%mzn-stat-end
%%%mzn-stat: nSolutions=1
%%%mzn-stat-end
